; benchmark generated from python API
(set-info :status unknown)
(declare-fun A_2 () Real)
(declare-fun L_2 () Real)
(declare-fun S_2 () Real)
(declare-fun S_1 () Real)
(declare-fun S_0 () Real)
(declare-fun L_1 () Real)
(declare-fun A_1 () Real)
(declare-fun A_0 () Real)
(declare-fun L_0 () Real)
(declare-fun S_3 () Real)
(declare-fun A_3 () Real)
(declare-fun Q_3 () Real)
(assert
 (let (($x956 (>= Q_3 0.0)))
 (let ((?x527 (* (- 1.0) L_1)))
 (let ((?x518 (* (- 1.0) L_0)))
 (let ((?x1153 (* (- 1.0) S_2)))
 (let ((?x492 (* (- 1.0) Q_3)))
 (let ((?x523 (* (- 1.0) A_2)))
 (let (($x5411 (<= (+ ?x523 L_2 ?x492 A_3 A_0 ?x1153 ?x518 ?x527) 0.0)))
 (let (($x1359 (<= (+ A_1 ?x527 ?x1153) 0.0)))
 (let (($x1380 (<= (+ ?x527 L_2) 0.0)))
 (let (($x1344 (not $x1380)))
 (let (($x1131 (<= (+ A_0 ?x492 (* (- 1.0) S_1) ?x527) 0.0)))
 (let (($x2174 (<= (+ A_2 (* (- 1.0) L_2) (* (- 1.0) S_3)) 0.0)))
 (let ((?x1611 (* 2.0 A_1)))
 (let ((?x1362 (* (- 2.0) L_1)))
 (let ((?x1020 (* (- 1.0) S_3)))
 (let ((?x904 (* (- 2.0) Q_3)))
 (let ((?x630 (* (- 1.0) A_0)))
 (let ((?x884 (* (- 2.0) L_2)))
 (let ((?x855 (* (- 3.0) S_3)))
 (let ((?x886 (* 2.0 A_3)))
 (let (($x871 (<= (+ A_0 ?x904 ?x886 ?x518 ?x855 ?x884) 0.0)))
 (let (($x7910 (<= (+ (* (- (/ 1.0 2.0)) A_0) (* (- (/ 1.0 2.0)) S_3) (* (/ 1.0 2.0) L_0) S_1) 0.0)))
 (let (($x2379 (<= (+ ?x630 L_0 S_1 L_2 ?x527 A_1 ?x523) 0.0)))
 (let (($x1749 (<= (+ Q_3 S_1 L_1 (* (- 1.0) A_1)) 0.0)))
 (let ((?x552 (* (- 1.0) A_1)))
 (let ((?x5070 (* (/ 1.0 3.0) S_3)))
 (let ((?x3977 (* (- (/ 2.0 3.0)) L_0)))
 (let ((?x3976 (* (/ 2.0 3.0) A_0)))
 (let (($x5283 (<= (+ ?x3976 ?x3977 ?x5070 L_1 ?x552) 0.0)))
 (let (($x2125 (= Q_3 0.0)))
 (let ((?x1616 (* (- 2.0) A_1)))
 (let ((?x536 (* (- 1.0) L_2)))
 (let ((?x1325 (* 2.0 L_1)))
 (let (($x1618 (<= (+ A_0 ?x492 ?x518 ?x1325 ?x536 ?x1616 A_2) 0.0)))
 (let (($x2695 (<= (+ ?x1611 ?x1362 Q_3 L_0 L_2 ?x630 ?x523) 0.0)))
 (let ((?x925 (* (- 3.0) A_2)))
 (let ((?x1583 (* 3.0 L_2)))
 (let ((?x1563 (* 2.0 S_3)))
 (let ((?x1585 (* 3.0 Q_3)))
 (let (($x1615 (<= (+ ?x630 ?x492 L_0 ?x1362 L_2 ?x1611 ?x523) 0.0)))
 (let (($x1576 (not $x1615)))
 (let (($x22645 (or $x1380 (<= (+ ?x630 Q_3 L_0 (* 2.0 S_1) L_2 ?x523) 0.0) (not (<= (+ ?x630 L_0 (* 2.0 S_1) L_2 ?x523) 0.0)))))
 (let ((?x1398 (* (- 2.0) A_2)))
 (let ((?x919 (* 2.0 L_2)))
 (let ((?x916 (* 2.0 Q_3)))
 (let ((?x3953 (* (/ 2.0 3.0) L_2)))
 (let ((?x1570 (* 2.0 S_1)))
 (let ((?x3952 (* (- (/ 2.0 3.0)) A_3)))
 (let (($x3931 (not (<= (+ (* (- (/ 4.0 3.0)) A_0) (* (/ 4.0 3.0) L_0) ?x3952 ?x1570 ?x3953) 0.0))))
 (let (($x3131 (<= (+ (* 2.0 A_0) (* (- 2.0) L_0) ?x886 (* (- 2.0) S_1) ?x1398) 0.0)))
 (let (($x3090 (not $x3131)))
 (let ((?x850 (* (- 1.0) A_3)))
 (let ((?x928 (* (- 2.0) A_0)))
 (let (($x932 (<= (+ ?x928 Q_3 ?x850 (* 2.0 L_0) (* 3.0 S_1) L_2) 0.0)))
 (let (($x7795 (<= (+ A_1 ?x527 ?x492 A_3 (* (- 2.0) S_3) ?x536) 0.0)))
 (let (($x1766 (<= (+ ?x630 ?x904 L_0 ?x1362 L_2 ?x1611 ?x523) 0.0)))
 (let (($x1597 (not $x1766)))
 (let ((?x924 (* (- 3.0) L_1)))
 (let (($x948 (<= (+ ?x630 ?x492 A_3 L_0 ?x919 ?x924 (* 3.0 A_1) ?x925) 0.0)))
 (let ((?x937 (* 3.0 A_2)))
 (let ((?x951 (* (- 3.0) A_1)))
 (let ((?x936 (* 3.0 L_1)))
 (let (($x2587 (<= (+ A_0 Q_3 ?x850 ?x518 ?x884 ?x936 ?x951 ?x937) 0.0)))
 (let ((?x938 (+ (* (- 4.0) A_0) ?x916 (* (- 2.0) A_3) L_0 (* 3.0 S_0) ?x536 ?x936 ?x937)))
 (let (($x458 (= ?x527 ?x518)))
 (let ((?x911 (* 2.0 A_0)))
 (let ((?x1651 (* (- 2.0) S_1)))
 (let ((?x923 (* (- 3.0) S_1)))
 (let ((?x922 (* 4.0 A_0)))
 (let (($x19949 (or (<= (+ ?x922 ?x904 ?x886 ?x518 ?x923 L_2 ?x924 ?x925) 0.0) $x1131 $x1380 (<= (+ A_1 ?x924 ?x492 A_3 ?x1651 L_2 ?x911 ?x1398) 0.0))))
 (let (($x4270 (<= (+ A_2 ?x536 ?x850 ?x630 L_0 S_1 L_1) 0.0)))
 (let (($x2688 (<= (+ ?x552 L_1 ?x492 ?x850 ?x536 (* 2.0 A_2)) 0.0)))
 (let (($x3955 (<= (+ (* (- (/ 1.0 3.0)) A_0) (* (/ 1.0 3.0) L_0) ?x3952 S_2 ?x3953) 0.0)))
 (let ((?x1133 (* (/ 1.0 2.0) L_0)))
 (let ((?x1132 (* (- (/ 1.0 2.0)) A_0)))
 (let (($x43151 (or (<= (+ ?x1132 Q_3 ?x850 ?x1133 (* (/ 3.0 2.0) S_2) L_2) 0.0) (not $x3955))))
 (let (($x2269 (<= (+ L_1 ?x1020 S_0 ?x536 ?x630 A_2) 0.0)))
 (let (($x1598 (<= (+ ?x492 ?x1020 ?x536 A_2) 0.0)))
 (let (($x19946 (or $x458 $x1598 $x2269 (<= (+ A_0 ?x1020 ?x518 ?x884 ?x1325 ?x1616 (* 2.0 A_2)) 0.0))))
 (let ((?x1384 (* 2.0 A_2)))
 (let (($x7810 (<= (+ ?x552 ?x936 Q_3 ?x850 (* 2.0 S_0) ?x536 ?x928 ?x1384) 0.0)))
 (let (($x7771 (<= (+ ?x552 L_1 Q_3 ?x850 (* 2.0 S_2) L_2) 0.0)))
 (let (($x1137 (<= (+ ?x630 Q_3 S_0 L_1) 0.0)))
 (let (($x16453 (or $x458 $x1137 (<= (+ A_0 Q_3 ?x518 ?x1325 ?x536 ?x1616 A_2) 0.0) $x2125)))
 (let (($x915 (<= (+ ?x911 ?x492 A_3 (* (- 2.0) L_0) (* (- 3.0) S_2) ?x536) 0.0)))
 (let (($x1589 (<= (+ Q_3 S_2 L_2 ?x523) 0.0)))
 (let (($x41056 (or $x458 $x1137 (<= (+ ?x911 ?x1585 (* (- 2.0) L_0) S_3 ?x936 ?x951) 0.0) (not $x5283))))
 (let (($x41444 (or $x458 $x1137 $x2125 (<= (+ ?x523 L_2 Q_3 S_3 A_0 ?x518 L_1 ?x552) 0.0))))
 (let (($x6319 (or $x932 (not $x4270) (<= (+ A_2 ?x536 Q_3 ?x850 ?x630 L_0 S_1 L_1) 0.0))))
 (let (($x40313 (or $x915 $x1359 (<= (+ A_0 ?x492 ?x518 (* (- 2.0) S_2) ?x536 A_2) 0.0))))
 (let (($x15723 (or $x458 $x1359 (<= (+ A_0 ?x518 ?x1153 ?x536 L_1 ?x552 A_2) 0.0) (<= (+ ?x518 (* (- 2.0) S_2) S_0 ?x536 L_1 A_2) 0.0))))
 (let (($x18085 (or $x1380 (<= (+ A_0 S_2 (* (- 1.0) S_1) L_2 ?x527 ?x523) 0.0))))
 (and (<= ?x527 ?x518) (<= ?x536 ?x527) (or $x1380 $x1589) (or $x458 $x1137 $x1749) (or $x1359 $x1380 $x2379) (or $x1380 $x1598 (<= (+ ?x630 L_0 S_2 ?x919 ?x1362 ?x1611 ?x1398) 0.0)) $x18085 (or $x1131 $x1380 (<= (+ ?x630 L_0 S_2 ?x919 ?x1362 ?x1611 ?x1398) 0.0)) (or $x948 $x1380 (<= (+ ?x492 ?x1153 ?x527 A_1) 0.0)) $x15723 (or $x948 $x1380 $x1598) $x40313 (or $x1359 (<= (+ ?x3976 ?x3977 ?x5070 ?x1153) 0.0)) (or $x915 (<= (+ ?x492 ?x1153 ?x527 A_1) 0.0)) (or $x1380 $x2174 $x2379) $x6319 $x41444 $x41056 (or $x458 $x1137 $x1589 (<= (+ A_0 ?x916 ?x518 S_2 ?x1325 ?x1616) 0.0)) (or $x1344 (<= (+ ?x492 ?x1153 ?x527 A_1) 0.0) $x5411) (or $x1359 (<= (+ ?x523 L_2 S_3 A_0 ?x1153 ?x518) 0.0)) (or $x915 $x1131 $x1359) (or $x458 $x1576 $x1598 $x2269) (or $x871 $x1598 $x7795) $x16453 (or (<= (+ ?x527 A_1 A_3 (* (- 2.0) S_2) ?x536) 0.0) $x7771) (or $x2125 $x7771) (or $x458 $x1576 $x2125 $x2688 $x7810) $x19946 $x43151 (or $x2125 $x3955) (or $x458 $x1137 $x1576 $x2587 $x2695) (or $x932 $x2125 $x2688) (or $x932 $x2125 $x4270) (or $x948 $x1380 $x1597 $x1615) $x19949 (or $x948 $x1131 $x1380) (or $x458 (<= ?x938 0.0) $x2125 $x2587) (or $x948 $x1380 $x1766 $x2125) (or $x932 $x1597 $x1615 $x3090) (or $x871 $x1131 $x2174 $x7795) (or $x932 $x3090 $x3931) (or $x1380 $x1618 $x2125 (<= (+ A_1 ?x527 ?x916 S_3 ?x919 ?x1398) 0.0)) $x22645 (or $x1380 $x1576 (<= (+ A_0 ?x1585 ?x518 ?x1563 ?x1583 ?x925) 0.0) $x2695) (or $x1380 (not $x1618) $x2125 $x5283) (or $x1380 $x1749 $x2379) (or $x2174 $x7910) (or $x871 (<= (+ ?x630 ?x904 L_0 ?x1020 ?x1362 ?x1611) 0.0) $x2174) (or $x1131 $x1344 $x1359 $x5411) $x956 (<= (+ Q_3 ?x850 S_3 L_2) 0.0) (<= (+ ?x1020 S_2) 0.0) (<= (+ S_0 L_0 ?x630) 0.0) (<= (+ ?x552 L_1 S_1) 0.0) (<= (+ (* (- 1.0) S_1) S_0) 0.0) (<= (+ (* (- 2.0) S_2) ?x1570) 0.0) (<= (+ S_2 L_2 ?x523) 0.0)))))))))))))))))))))))))))))))))))))))))))))))))))))))))))))))))))))))))))))))))))))))))))))))
(check-sat)
